projected/problems_b25_r0_d7_m100_s666/_DIMACS/b25_d7_r0_s666_043.cnf
p cnf 325 638 25
c p show 1 2 3 4 5 6 7 8 9 10 11 12 13 14 15 16 17 18 19 20 21 22 23 24 25
-26 -16 -1 0
-27 -2 0
-27 -21 0
-28 27 26 0
-29 2 21 0
-30 16 0
-30 1 0
-31 30 29 0
-32 31 0
-32 28 0
-33 -1 14 0
-34 23 0
-34 13 0
-35 34 33 0
-36 35 0
-36 32 0
-37 -16 0
-37 -19 0
-38 -3 -9 0
-39 9 3 0
-40 39 0
-40 38 0
-41 40 37 0
-42 22 -3 0
-43 21 0
-43 11 0
-44 43 42 0
-45 44 41 0
-46 45 36 0
-47 16 19 0
-48 3 0
-48 9 0
-49 -9 0
-49 -3 0
-50 49 48 0
-51 50 0
-51 47 0
-52 -22 0
-52 3 0
-53 -21 -11 0
-54 53 0
-54 52 0
-55 54 0
-55 51 0
-56 29 0
-56 30 0
-57 26 0
-57 27 0
-58 57 56 0
-59 1 0
-59 -14 0
-60 -23 -13 0
-61 60 0
-61 59 0
-62 61 58 0
-63 62 55 0
-64 63 0
-64 46 0
-65 1 -11 0
-66 42 0
-66 65 0
-67 -4 0
-67 22 0
-68 16 0
-68 -25 0
-69 68 0
-69 67 0
-70 69 66 0
-71 -25 0
-71 19 0
-72 -4 1 0
-73 72 0
-73 71 0
-74 -4 12 0
-75 7 6 0
-76 -6 -7 0
-77 76 0
-77 75 0
-78 77 0
-78 74 0
-79 78 73 0
-80 79 0
-80 70 0
-81 80 64 0
-82 3 15 0
-83 -15 -3 0
-84 83 0
-84 82 0
-85 -5 0
-85 -9 0
-86 85 84 0
-87 -21 -1 0
-88 11 22 0
-89 88 0
-89 87 0
-90 89 86 0
-91 5 0
-91 23 0
-92 24 0
-92 1 0
-93 92 0
-93 91 0
-94 24 16 0
-95 4 -17 0
-96 95 0
-96 94 0
-97 96 0
-97 93 0
-98 97 90 0
-99 -5 -23 0
-100 -24 -1 0
-101 100 99 0
-102 -24 0
-102 -16 0
-103 -4 0
-103 17 0
-104 103 102 0
-105 104 101 0
-106 -3 0
-106 -15 0
-107 15 0
-107 3 0
-108 107 106 0
-109 5 9 0
-110 109 0
-110 108 0
-111 21 0
-111 1 0
-112 -11 0
-112 -22 0
-113 112 111 0
-114 113 0
-114 110 0
-115 114 105 0
-116 115 0
-116 98 0
-117 -18 -11 0
-118 22 0
-118 16 0
-119 118 117 0
-120 -18 -5 0
-121 22 0
-121 8 0
-122 121 0
-122 120 0
-123 122 119 0
-124 -11 -1 0
-125 -5 2 0
-126 125 0
-126 124 0
-127 8 5 0
-128 -5 -8 0
-129 128 0
-129 127 0
-130 -20 10 0
-131 130 129 0
-132 131 0
-132 126 0
-133 132 0
-133 123 0
-134 133 116 0
-135 134 81 0
-136 -17 0
-136 3 0
-137 -17 0
-137 2 0
-138 137 0
-138 136 0
-139 -4 9 0
-140 13 0
-140 24 0
-141 140 139 0
-142 141 138 0
-143 10 0
-143 -20 0
-144 11 10 0
-145 144 0
-145 143 0
-146 -11 0
-146 -10 0
-147 -10 20 0
-148 147 0
-148 146 0
-149 148 145 0
-150 -20 -3 0
-151 -1 0
-151 2 0
-152 151 0
-152 150 0
-153 152 149 0
-154 153 0
-154 142 0
-155 23 15 0
-156 3 0
-156 -17 0
-157 156 0
-157 155 0
-158 -3 17 0
-159 -23 0
-159 -15 0
-160 159 0
-160 158 0
-161 160 157 0
-162 16 0
-162 -21 0
-163 -21 -16 0
-164 163 0
-164 162 0
-165 164 161 0
-166 -22 0
-166 2 0
-167 2 0
-167 24 0
-168 167 0
-168 166 0
-169 9 0
-169 -25 0
-170 17 0
-170 8 0
-171 170 0
-171 169 0
-172 171 168 0
-173 172 0
-173 165 0
-174 173 0
-174 154 0
-175 -16 0
-175 16 0
-176 22 0
-176 3 0
-177 176 175 0
-178 -22 -3 0
-179 16 -16 0
-180 179 178 0
-181 180 0
-181 177 0
-182 -14 0
-182 7 0
-183 -7 0
-183 14 0
-184 183 182 0
-185 -7 8 0
-186 185 184 0
-187 186 0
-187 181 0
-188 13 -13 0
-189 -23 0
-189 21 0
-190 189 0
-190 188 0
-191 23 -21 0
-192 -13 0
-192 13 0
-193 192 0
-193 191 0
-194 193 190 0
-195 -9 0
-195 11 0
-196 -19 14 0
-197 196 0
-197 195 0
-198 197 194 0
-199 198 0
-199 187 0
-200 1 15 0
-201 16 -11 0
-202 201 0
-202 200 0
-203 11 8 0
-204 -12 0
-204 -9 0
-205 204 0
-205 203 0
-206 205 0
-206 202 0
-207 -1 -12 0
-208 -22 0
-208 13 0
-209 208 207 0
-210 21 0
-210 -15 0
-211 25 -12 0
-212 211 0
-212 210 0
-213 212 209 0
-214 213 206 0
-215 214 199 0
-216 215 174 0
-217 216 135 0
-218 17 -3 0
-219 17 -2 0
-220 219 218 0
-221 4 0
-221 -9 0
-222 -13 -24 0
-223 222 0
-223 221 0
-224 223 0
-224 220 0
-225 146 147 0
-226 143 144 0
-227 226 0
-227 225 0
-228 20 0
-228 3 0
-229 1 -2 0
-230 229 228 0
-231 230 0
-231 227 0
-232 231 224 0
-233 158 159 0
-234 155 156 0
-235 234 0
-235 233 0
-236 -16 21 0
-237 21 0
-237 16 0
-238 237 236 0
-239 238 0
-239 235 0
-240 22 -2 0
-241 -2 -24 0
-242 241 240 0
-243 -9 25 0
-244 -17 -8 0
-245 244 243 0
-246 245 0
-246 242 0
-247 246 239 0
-248 247 232 0
-249 178 0
-249 179 0
-250 175 0
-250 176 0
-251 250 249 0
-252 14 -7 0
-253 7 -14 0
-254 253 0
-254 252 0
-255 7 0
-255 -8 0
-256 255 0
-256 254 0
-257 256 251 0
-258 191 192 0
-259 188 189 0
-260 259 0
-260 258 0
-261 9 -11 0
-262 19 0
-262 -14 0
-263 262 261 0
-264 263 0
-264 260 0
-265 264 257 0
-266 -1 0
-266 -15 0
-267 -16 0
-267 11 0
-268 267 266 0
-269 -11 0
-269 -8 0
-270 12 9 0
-271 270 269 0
-272 271 268 0
-273 1 0
-273 12 0
-274 22 -13 0
-275 274 0
-275 273 0
-276 -21 15 0
-277 -25 0
-277 12 0
-278 277 276 0
-279 278 0
-279 275 0
-280 279 0
-280 272 0
-281 280 0
-281 265 0
-282 281 0
-282 248 0
-283 55 0
-283 62 0
-284 36 0
-284 45 0
-285 284 283 0
-286 -1 0
-286 11 0
-287 52 286 0
-288 4 -22 0
-289 -16 25 0
-290 289 288 0
-291 290 0
-291 287 0
-292 25 -19 0
-293 4 0
-293 -1 0
-294 293 292 0
-295 4 0
-295 -12 0
-296 -7 0
-296 -6 0
-297 6 0
-297 7 0
-298 297 296 0
-299 298 295 0
-300 299 0
-300 294 0
-301 300 291 0
-302 301 0
-302 285 0
-303 105 0
-303 114 0
-304 90 0
-304 97 0
-305 304 303 0
-306 18 0
-306 11 0
-307 -22 -16 0
-308 307 0
-308 306 0
-309 18 0
-309 5 0
-310 -22 -8 0
-311 310 309 0
-312 311 0
-312 308 0
-313 11 0
-313 1 0
-314 5 0
-314 -2 0
-315 314 313 0
-316 -8 0
-316 -5 0
-317 5 0
-317 8 0
-318 317 316 0
-319 20 0
-319 -10 0
-320 319 0
-320 318 0
-321 320 315 0
-322 321 312 0
-323 322 0
-323 305 0
-324 323 0
-324 302 0
-325 324 282 0
325 0
217 0
-218 -136 0
-136 -218 0
-137 -219 0
-138 -220 0
-139 -221 0
-222 -140 0
-140 -222 0
-141 -223 0
-142 -224 0
-224 -142 0
-146 -144 0
-144 -146 0
-147 -143 0
-227 -149 0
-149 -227 0
-150 -228 0
-228 -150 0
-229 -151 0
-230 -152 0
-152 -230 0
-153 -231 0
-231 -153 0
-232 -154 0
-154 -232 0
-158 -156 0
-156 -158 0
-159 -155 0
-235 -161 0
-236 -162 0
-237 -163 0
-238 -164 0
-239 -165 0
-165 -239 0
-166 -240 0
-241 -167 0
-167 -241 0
-168 -242 0
-169 -243 0
-243 -169 0
-170 -244 0
-244 -170 0
-245 -171 0
-171 -245 0
-172 -246 0
-173 -247 0
-174 -248 0
-248 -174 0
-178 -176 0
-175 -179 0
-181 -251 0
-251 -181 0
-254 -184 0
-184 -254 0
-185 -255 0
-186 -256 0
-256 -186 0
-257 -187 0
-191 -189 0
-189 -191 0
-192 -188 0
-260 -194 0
-194 -260 0
-195 -261 0
-261 -195 0
-196 -262 0
-262 -196 0
-263 -197 0
-197 -263 0
-198 -264 0
-264 -198 0
-265 -199 0
-200 -266 0
-201 -267 0
-202 -268 0
-269 -203 0
-203 -269 0
-270 -204 0
-204 -270 0
-205 -271 0
-206 -272 0
-272 -206 0
-207 -273 0
-273 -207 0
-208 -274 0
-274 -208 0
-275 -209 0
-210 -276 0
-211 -277 0
-212 -278 0
-278 -212 0
-279 -213 0
-280 -214 0
-281 -215 0
-282 -216 0
-47 -37 0
-37 -47 0
-40 -50 0
-41 -51 0
-51 -41 0
-52 -42 0
-42 -52 0
-53 -43 0
-43 -53 0
-44 -54 0
-54 -44 0
-55 -45 0
-27 -29 0
-29 -27 0
-30 -26 0
-26 -30 0
-32 -58 0
-58 -32 0
-33 -59 0
-59 -33 0
-60 -34 0
-61 -35 0
-62 -36 0
-36 -62 0
-64 -285 0
-286 -65 0
-65 -286 0
-66 -287 0
-288 -67 0
-289 -68 0
-290 -69 0
-69 -290 0
-70 -291 0
-292 -71 0
-71 -292 0
-293 -72 0
-72 -293 0
-73 -294 0
-74 -295 0
-77 -298 0
-78 -299 0
-79 -300 0
-80 -301 0
-81 -302 0
-302 -81 0
-99 -91 0
-92 -100 0
-100 -92 0
-101 -93 0
-93 -101 0
-102 -94 0
-103 -95 0
-104 -96 0
-96 -104 0
-97 -105 0
-105 -97 0
-84 -108 0
-109 -85 0
-85 -109 0
-86 -110 0
-110 -86 0
-87 -111 0
-111 -87 0
-88 -112 0
-112 -88 0
-113 -89 0
-114 -90 0
-90 -114 0
-116 -305 0
-305 -116 0
-117 -306 0
-118 -307 0
-119 -308 0
-308 -119 0
-120 -309 0
-309 -120 0
-121 -310 0
-310 -121 0
-311 -122 0
-312 -123 0
-313 -124 0
-314 -125 0
-315 -126 0
-129 -318 0
-319 -130 0
-130 -319 0
-131 -320 0
-320 -131 0
-321 -132 0
-322 -133 0
-323 -134 0
-324 -135 0
-135 -324 0
