projected/problems_b25_r0_d7_m100_s666/b25_d7_r0_s666_043.smt2
(set-logic QF_UF)
(declare-fun A0 () Bool)
(declare-fun A1 () Bool)
(declare-fun A2 () Bool)
(declare-fun A3 () Bool)
(declare-fun A4 () Bool)
(declare-fun A5 () Bool)
(declare-fun A6 () Bool)
(declare-fun A7 () Bool)
(declare-fun A8 () Bool)
(declare-fun A9 () Bool)
(declare-fun A10 () Bool)
(declare-fun A11 () Bool)
(declare-fun A12 () Bool)
(declare-fun A13 () Bool)
(declare-fun A14 () Bool)
(declare-fun A15 () Bool)
(declare-fun A16 () Bool)
(declare-fun A17 () Bool)
(declare-fun A18 () Bool)
(declare-fun A19 () Bool)
(declare-fun A20 () Bool)
(declare-fun A21 () Bool)
(declare-fun A22 () Bool)
(declare-fun A23 () Bool)
(declare-fun A24 () Bool)
(assert (let ((.def_0 (not A2))) (let ((.def_1 (or A16 .def_0))) (let ((.def_2 (not .def_1))) (let ((.def_3 (not A16))) (let ((.def_4 (and .def_3 A1))) (let ((.def_5 (and .def_4 .def_2))) (let ((.def_6 (not A3))) (let ((.def_7 (or .def_6 A8))) (let ((.def_8 (not A23))) (let ((.def_9 (not A12))) (let ((.def_10 (or .def_9 .def_8))) (let ((.def_11 (not .def_10))) (let ((.def_12 (or .def_11 .def_7))) (let ((.def_13 (or .def_12 .def_5))) (let ((.def_14 (not .def_13))) (let ((.def_15 (not A9))) (let ((.def_16 (not A10))) (let ((.def_17 (and .def_16 .def_15))) (let ((.def_18 (not .def_17))) (let ((.def_19 (or .def_15 A19))) (let ((.def_20 (= .def_19 .def_18))) (let ((.def_21 (not .def_20))) (let ((.def_22 (not A19))) (let ((.def_23 (or .def_22 .def_0))) (let ((.def_24 (not .def_23))) (let ((.def_25 (not A1))) (let ((.def_26 (or A0 .def_25))) (let ((.def_27 (or .def_26 .def_24))) (let ((.def_28 (not .def_27))) (let ((.def_29 (or .def_28 .def_21))) (let ((.def_30 (not .def_29))) (let ((.def_31 (or .def_30 .def_14))) (let ((.def_32 (not .def_31))) (let ((.def_33 (or .def_0 A16))) (let ((.def_34 (not .def_33))) (let ((.def_35 (not A14))) (let ((.def_36 (not A22))) (let ((.def_37 (and .def_36 .def_35))) (let ((.def_38 (= .def_37 .def_34))) (let ((.def_39 (not A15))) (let ((.def_40 (or .def_39 A20))) (let ((.def_41 (and A20 A15))) (let ((.def_42 (or .def_41 .def_40))) (let ((.def_43 (and .def_42 .def_38))) (let ((.def_44 (not .def_43))) (let ((.def_45 (not A21))) (let ((.def_46 (and .def_45 A1))) (let ((.def_47 (or .def_25 .def_8))) (let ((.def_48 (not .def_47))) (let ((.def_49 (and .def_48 .def_46))) (let ((.def_50 (not A24))) (let ((.def_51 (and A8 .def_50))) (let ((.def_52 (not .def_51))) (let ((.def_53 (and A16 A7))) (let ((.def_54 (not .def_53))) (let ((.def_55 (or .def_54 .def_52))) (let ((.def_56 (not .def_55))) (let ((.def_57 (or .def_56 .def_49))) (let ((.def_58 (and .def_57 .def_44))) (let ((.def_59 (and .def_58 .def_32))) (let ((.def_60 (not .def_59))) (let ((.def_61 (or .def_45 .def_0))) (let ((.def_62 (and .def_39 A15))) (let ((.def_63 (= .def_62 .def_61))) (let ((.def_64 (not .def_63))) (let ((.def_65 (not A13))) (let ((.def_66 (not A6))) (let ((.def_67 (= .def_66 .def_65))) (let ((.def_68 (not .def_67))) (let ((.def_69 (or .def_66 A7))) (let ((.def_70 (or .def_69 .def_68))) (let ((.def_71 (not .def_70))) (let ((.def_72 (or .def_71 .def_64))) (let ((.def_73 (not A20))) (let ((.def_74 (or A22 .def_73))) (let ((.def_75 (not .def_74))) (let ((.def_76 (and .def_9 A12))) (let ((.def_77 (= .def_76 .def_75))) (let ((.def_78 (not .def_77))) (let ((.def_79 (not A8))) (let ((.def_80 (and .def_79 A10))) (let ((.def_81 (not .def_80))) (let ((.def_82 (not A18))) (let ((.def_83 (or .def_82 A13))) (let ((.def_84 (not .def_83))) (let ((.def_85 (or .def_84 .def_81))) (let ((.def_86 (not .def_85))) (let ((.def_87 (or .def_86 .def_78))) (let ((.def_88 (not .def_87))) (let ((.def_89 (or .def_88 .def_72))) (let ((.def_90 (or A0 A14))) (let ((.def_91 (or A15 .def_16))) (let ((.def_92 (and .def_91 .def_90))) (let ((.def_93 (not A7))) (let ((.def_94 (and .def_16 .def_93))) (let ((.def_95 (not .def_94))) (let ((.def_96 (or A11 A8))) (let ((.def_97 (not .def_96))) (let ((.def_98 (and .def_97 .def_95))) (let ((.def_99 (and .def_98 .def_92))) (let ((.def_100 (not .def_99))) (let ((.def_101 (not A11))) (let ((.def_102 (not A0))) (let ((.def_103 (or .def_102 .def_101))) (let ((.def_104 (not .def_103))) (let ((.def_105 (and .def_45 A12))) (let ((.def_106 (not .def_105))) (let ((.def_107 (and .def_106 .def_104))) (let ((.def_108 (and A20 .def_35))) (let ((.def_109 (or A24 .def_101))) (let ((.def_110 (and .def_109 .def_108))) (let ((.def_111 (not .def_110))) (let ((.def_112 (and .def_111 .def_107))) (let ((.def_113 (and .def_112 .def_100))) (let ((.def_114 (and .def_113 .def_89))) (let ((.def_115 (and .def_114 .def_60))) (let ((.def_116 (or A15 A18))) (let ((.def_117 (not .def_116))) (let ((.def_118 (= .def_79 A2))) (let ((.def_119 (or .def_118 .def_117))) (let ((.def_120 (not .def_119))) (let ((.def_121 (and .def_45 A2))) (let ((.def_122 (not .def_121))) (let ((.def_123 (or .def_73 .def_16))) (let ((.def_124 (not .def_123))) (let ((.def_125 (or .def_124 .def_122))) (let ((.def_126 (not .def_125))) (let ((.def_127 (and .def_126 .def_120))) (let ((.def_128 (and .def_25 .def_73))) (let ((.def_129 (not .def_128))) (let ((.def_130 (and A15 A0))) (let ((.def_131 (not .def_130))) (let ((.def_132 (= .def_131 .def_129))) (let ((.def_133 (not .def_132))) (let ((.def_134 (or .def_102 A13))) (let ((.def_135 (not .def_134))) (let ((.def_136 (or .def_36 .def_9))) (let ((.def_137 (and .def_136 .def_135))) (let ((.def_138 (or .def_137 .def_133))) (let ((.def_139 (not .def_138))) (let ((.def_140 (= .def_139 .def_127))) (let ((.def_141 (and .def_102 A10))) (let ((.def_142 (not .def_141))) (let ((.def_143 (or A21 .def_0))) (let ((.def_144 (and .def_143 .def_142))) (let ((.def_145 (or A3 .def_45))) (let ((.def_146 (or .def_39 A24))) (let ((.def_147 (or .def_146 .def_145))) (let ((.def_148 (not .def_147))) (let ((.def_149 (or .def_148 .def_144))) (let ((.def_150 (or A24 .def_82))) (let ((.def_151 (not .def_150))) (let ((.def_152 (and A3 .def_102))) (let ((.def_153 (not .def_152))) (let ((.def_154 (and .def_153 .def_151))) (let ((.def_155 (or .def_6 A11))) (let ((.def_156 (= A5 .def_66))) (let ((.def_157 (and .def_156 .def_155))) (let ((.def_158 (or .def_157 .def_154))) (let ((.def_159 (and .def_158 .def_149))) (let ((.def_160 (or .def_159 .def_140))) (let ((.def_161 (not .def_160))) (let ((.def_162 (not A4))) (let ((.def_163 (or .def_162 .def_36))) (let ((.def_164 (and A23 A0))) (let ((.def_165 (not .def_164))) (let ((.def_166 (or .def_165 .def_163))) (let ((.def_167 (not .def_166))) (let ((.def_168 (and .def_8 .def_39))) (let ((.def_169 (and .def_6 A16))) (let ((.def_170 (or .def_169 .def_168))) (let ((.def_171 (not .def_170))) (let ((.def_172 (and .def_171 .def_167))) (let ((.def_173 (not .def_172))) (let ((.def_174 (= A14 .def_0))) (let ((.def_175 (or A4 A8))) (let ((.def_176 (not .def_175))) (let ((.def_177 (or .def_176 .def_174))) (let ((.def_178 (not .def_177))) (let ((.def_179 (or .def_73 .def_102))) (let ((.def_180 (not .def_179))) (let ((.def_181 (or A10 A21))) (let ((.def_182 (not .def_181))) (let ((.def_183 (or .def_182 .def_180))) (let ((.def_184 (and .def_183 .def_178))) (let ((.def_185 (not .def_184))) (let ((.def_186 (= .def_185 .def_173))) (let ((.def_187 (not .def_186))) (let ((.def_188 (not A17))) (let ((.def_189 (or .def_188 .def_16))) (let ((.def_190 (and A21 A15))) (let ((.def_191 (or .def_190 .def_189))) (let ((.def_192 (not .def_191))) (let ((.def_193 (or .def_188 .def_162))) (let ((.def_194 (not .def_193))) (let ((.def_195 (and A21 A7))) (let ((.def_196 (not .def_195))) (let ((.def_197 (or .def_196 .def_194))) (let ((.def_198 (and .def_197 .def_192))) (let ((.def_199 (and A10 A0))) (let ((.def_200 (and A4 .def_25))) (let ((.def_201 (or .def_200 .def_199))) (let ((.def_202 (= A4 .def_93))) (let ((.def_203 (and A19 .def_15))) (let ((.def_204 (not .def_203))) (let ((.def_205 (or .def_204 .def_202))) (let ((.def_206 (not .def_205))) (let ((.def_207 (or .def_206 .def_201))) (let ((.def_208 (or .def_207 .def_198))) (let ((.def_209 (and .def_208 .def_187))) (let ((.def_210 (and .def_209 .def_161))) (let ((.def_211 (not .def_210))) (let ((.def_212 (= .def_211 .def_115))) .def_212))))))))))))))))))))))))))))))))))))))))))))))))))))))))))))))))))))))))))))))))))))))))))))))))))))))))))))))))))))))))))))))))))))))))))))))))))))))))))))))))))))))))))))))))))))))))))))))))))))))))))))))))))))))
(check-sat)
